27
7
0 1 8 3
26 6 23 3 12 16 7 22 25 14 18 10 1 15 17 20 19 21 5 2 8 4 9 0 13 24
21 8 24 20 10 6 26 4 7 23 25
12 14 25 24 22 5 13 10 6 18 19 0 4 15 8 3 2 23 26 16 17 21 11 9 20
13 16 1 22 8 5 3 20 7 10 24 2 6
13 24 21 20 0 12 22 15 26 6 25 16 11 9 7 5 3 14 19 8 1 17 18 23 4 2 10
15 24 13 7 0 9 4 11 26 20 22 17
